25
630
217
432
570
486
704
272
612
400
120
423
396
300
602
320
735
273
84
180
455
884
738
341
912
222
338
572
264
800
40
29
828
612
500
378
248
882
266
54
180
340
918
492
480
799
148
338
516
448
50
663
476
92
315
156
714
620
96
185
270
440
429
306
720
493
282
504
75
645
224
441
494
56
810
510
364
574
210
144
333
494
308
99
850
117
203
690
175
125
798
217
833
38
270
484
34
408
40
